PARAMETER_FILE = even/LKH_uncomplete_graph/x10/seg/par/random188.par
PROBLEM_FILE = even/LKH_uncomplete_graph/x10/seg/mat/random188.tsp
Successes/Runs = 0/10
Cost.min = 1046, Cost.avg = 1046.00, Cost.max = 1046
Gap.min = 0.0000%, Gap.avg = 0.0000%, Gap.max = 0.0000%
Trials.min = 1000, Trials.avg = 1000.0, Trials.max = 1000
Time.min = 0.23 sec., Time.avg = 0.26 sec., Time.max = 0.30 sec.
Time.total = 2.72 sec.
请按任意键继续. . . 
